instances/knapsack/discrete/knapsack_60_15.lp
\ Model knapsack_60_15
\ LP format - for model browsing. Use MPS format to capture full model detail.
\ Signature: 0x44a844bc7146bef8
Minimize
  - 52 x[0] - 13 x[1] - 46 x[2] - 38 x[3] - 60 x[4] - 3 x[5] - 84 x[6]
   - 46 x[7] - 17 x[8] - 21 x[9] - 81 x[10] - 85 x[11] - 93 x[12]
   - 24 x[13] - 21 x[14] - 70 x[15] - 12 x[16] - 12 x[17] - 57 x[18]
   - 4 x[19] - 44 x[20] - 73 x[21] - 66 x[22] - 14 x[23] - 47 x[24]
   - 13 x[25] - 46 x[26] - 6 x[27] - 36 x[28] - 55 x[29] - 35 x[30]
   - 42 x[31] - 94 x[32] - 53 x[33] - 58 x[34] - 91 x[35] - 75 x[36]
   - 57 x[37] - 81 x[38] - 62 x[39] - 78 x[40] - 84 x[41] - 92 x[42]
   - 41 x[43] - 49 x[44] - 57 x[45] - 11 x[46] - 79 x[47] - 67 x[48]
   - 80 x[49] - x[50] - 9 x[51] - x[52] - 59 x[53] - 14 x[54] - 64 x[55]
   - 37 x[56] - 98 x[57] - 66 x[58] - 29 x[59]
Subject To
 primal_upper: 66 x[0] + 18 x[1] + 84 x[2] + 29 x[3] + 78 x[4] + 96 x[5]
   + 27 x[6] + 62 x[7] + 91 x[8] + 80 x[9] + 78 x[10] + 29 x[11] + 42 x[12]
   + 82 x[13] + 91 x[14] + 31 x[15] + 27 x[16] + 38 x[17] + 63 x[18]
   + 40 x[19] + 27 x[20] + 38 x[21] + 86 x[22] + 45 x[23] + 91 x[24]
   + 18 x[25] + 44 x[26] + 50 x[27] + 88 x[28] + 81 x[29] + 32 x[30]
   + 14 x[31] + 66 x[32] + 31 x[33] + 46 x[34] + 31 x[35] + 46 x[36]
   + 51 x[37] + 70 x[38] + 13 x[39] + 89 x[40] + 76 x[41] + 28 x[42]
   + 4 x[43] + 97 x[44] + 65 x[45] + 80 x[46] + 32 x[47] + 97 x[48]
   + 62 x[49] + 57 x[50] + 58 x[51] + 3 x[52] + 82 x[53] + 83 x[54]
   + 22 x[55] + 47 x[56] + 61 x[57] + 98 x[58] + 28 x[59] + 6.6 r[0]
   + 1.8 r[1] + 8.4 r[2] + 2.9 r[3] + 7.8 r[4] + 9.6 r[5] + 2.7 r[6]
   + 6.2 r[7] + 9.1 r[8] + 8 r[9] + 7.8 r[10] + 2.9 r[11] + 4.2 r[12]
   + 8.2 r[13] + 9.1 r[14] + 3.1 r[15] + 2.7 r[16] + 3.8 r[17] + 6.3 r[18]
   + 4 r[19] + 2.7 r[20] + 3.8 r[21] + 8.6 r[22] + 4.5 r[23] + 9.1 r[24]
   + 1.8 r[25] + 4.4 r[26] + 5 r[27] + 8.8 r[28] + 8.1 r[29] + 3.2 r[30]
   + 1.4 r[31] + 6.6 r[32] + 3.1 r[33] + 4.6 r[34] + 3.1 r[35] + 4.6 r[36]
   + 5.1 r[37] + 7 r[38] + 1.3 r[39] + 8.9 r[40] + 7.6 r[41] + 2.8 r[42]
   + 0.4 r[43] + 9.7 r[44] + 6.5 r[45] + 8 r[46] + 3.2 r[47] + 9.7 r[48]
   + 6.2 r[49] + 5.7 r[50] + 5.8 r[51] + 0.3 r[52] + 8.2 r[53] + 8.3 r[54]
   + 2.2 r[55] + 4.7 r[56] + 6.1 r[57] + 9.8 r[58] + 2.8 r[59] <= 313
 primal_lower: 3.609927612901529 x[0] + 3.319023441287547 x[1]
   + 0.9939265996366308 x[2] + 0.1143602398289109 x[3]
   + 0.9869352113625001 x[4] + 2.190097837514247 x[5]
   + 4.24975374499616 x[6] + 2.44643906381313 x[7] + 2.040967650513227 x[8]
   + 2.684185361095675 x[9] + 1.839918229108735 x[10]
   + 2.16127790384632 x[11] + 3.35139096042986 x[12]
   + 2.522800015413848 x[13] + 1.448608543830504 x[14]
   + 2.563792140960706 x[15] + 1.316242045589982 x[16]
   + 4.131012300455198 x[17] + 2.887023286486453 x[18]
   + 2.01922099634313 x[19] + 4.188080024731383 x[20]
   + 4.300787519739308 x[21] + 1.601487868251674 x[22]
   + 1.632011014011574 x[23] + 0.6084763498663849 x[24]
   + 2.418046787947501 x[25] + 2.166824793648127 x[26]
   + 4.201376682918995 x[27] + 0.0753894827253105 x[28]
   + 3.376534171748225 x[29] + 3.972385113394278 x[30]
   + 2.093199017767469 x[31] + 4.199092710492505 x[32]
   + 1.85928512527575 x[33] + 0.6482223033794362 x[34]
   + 4.170555177132067 x[35] + 1.970460470158 x[36]
   + 4.610058093026709 x[37] + 4.103943106619021 x[38]
   + 0.2950882474764769 x[39] + 4.206266765835992 x[40]
   + 1.837919549763277 x[41] + 3.348511098480784 x[42]
   + 3.223622756878311 x[43] + 4.137344980199806 x[44]
   + 3.268632748469691 x[45] + 2.628214478638406 x[46]
   + 0.1527138400549005 x[47] + 1.699097095292182 x[48]
   + 4.06115740101027 x[49] + 4.566114680495628 x[50]
   + 3.236515781617201 x[51] + 0.6510240476125326 x[52]
   + 2.668426776033467 x[53] + 4.547990091856382 x[54]
   + 0.0910055511043818 x[55] + 0.0807173035554058 x[56]
   + 1.411177726720059 x[57] + 2.877558339350438 x[58]
   + 3.188131071925676 x[59] + 72 u[0] + 93 u[1] + 31 u[2] + 12 u[3]
   + 69 u[4] + 42 u[5] + 90 u[6] + 4 u[7] + 6 u[8] + 55 u[9] + 40 u[10]
   + 28 u[11] + 33 u[12] + 57 u[13] + 81 u[14] + 69 u[15] + 94 u[16]
   + 85 u[17] + 94 u[18] + 75 u[19] + 54 u[20] + 96 u[21] + 21 u[22]
   + 87 u[23] + 49 u[24] + u[25] + 87 u[26] + 24 u[27] + 18 u[28]
   + 84 u[29] + 62 u[30] + 16 u[31] + 68 u[32] + 98 u[33] + 65 u[34]
   + 82 u[35] + 53 u[36] + 33 u[37] + 81 u[38] + 71 u[39] + 12 u[40]
   + 58 u[41] + 39 u[42] + 82 u[43] + 8 u[44] + 11 u[45] + 42 u[46]
   + 2 u[47] + 80 u[48] + 45 u[49] + 23 u[50] + 9 u[51] + 6 u[52]
   + 57 u[53] + 13 u[54] + 52 u[55] + 42 u[56] + 39 u[57] + 9 u[58]
   + 71 u[59] <= 65487
 mccormick1[0]: - u[0] + r[0] <= 0
 mccormick1[1]: - u[1] + r[1] <= 0
 mccormick1[2]: - u[2] + r[2] <= 0
 mccormick1[3]: - u[3] + r[3] <= 0
 mccormick1[4]: - u[4] + r[4] <= 0
 mccormick1[5]: - u[5] + r[5] <= 0
 mccormick1[6]: - u[6] + r[6] <= 0
 mccormick1[7]: - u[7] + r[7] <= 0
 mccormick1[8]: - u[8] + r[8] <= 0
 mccormick1[9]: - u[9] + r[9] <= 0
 mccormick1[10]: - u[10] + r[10] <= 0
 mccormick1[11]: - u[11] + r[11] <= 0
 mccormick1[12]: - u[12] + r[12] <= 0
 mccormick1[13]: - u[13] + r[13] <= 0
 mccormick1[14]: - u[14] + r[14] <= 0
 mccormick1[15]: - u[15] + r[15] <= 0
 mccormick1[16]: - u[16] + r[16] <= 0
 mccormick1[17]: - u[17] + r[17] <= 0
 mccormick1[18]: - u[18] + r[18] <= 0
 mccormick1[19]: - u[19] + r[19] <= 0
 mccormick1[20]: - u[20] + r[20] <= 0
 mccormick1[21]: - u[21] + r[21] <= 0
 mccormick1[22]: - u[22] + r[22] <= 0
 mccormick1[23]: - u[23] + r[23] <= 0
 mccormick1[24]: - u[24] + r[24] <= 0
 mccormick1[25]: - u[25] + r[25] <= 0
 mccormick1[26]: - u[26] + r[26] <= 0
 mccormick1[27]: - u[27] + r[27] <= 0
 mccormick1[28]: - u[28] + r[28] <= 0
 mccormick1[29]: - u[29] + r[29] <= 0
 mccormick1[30]: - u[30] + r[30] <= 0
 mccormick1[31]: - u[31] + r[31] <= 0
 mccormick1[32]: - u[32] + r[32] <= 0
 mccormick1[33]: - u[33] + r[33] <= 0
 mccormick1[34]: - u[34] + r[34] <= 0
 mccormick1[35]: - u[35] + r[35] <= 0
 mccormick1[36]: - u[36] + r[36] <= 0
 mccormick1[37]: - u[37] + r[37] <= 0
 mccormick1[38]: - u[38] + r[38] <= 0
 mccormick1[39]: - u[39] + r[39] <= 0
 mccormick1[40]: - u[40] + r[40] <= 0
 mccormick1[41]: - u[41] + r[41] <= 0
 mccormick1[42]: - u[42] + r[42] <= 0
 mccormick1[43]: - u[43] + r[43] <= 0
 mccormick1[44]: - u[44] + r[44] <= 0
 mccormick1[45]: - u[45] + r[45] <= 0
 mccormick1[46]: - u[46] + r[46] <= 0
 mccormick1[47]: - u[47] + r[47] <= 0
 mccormick1[48]: - u[48] + r[48] <= 0
 mccormick1[49]: - u[49] + r[49] <= 0
 mccormick1[50]: - u[50] + r[50] <= 0
 mccormick1[51]: - u[51] + r[51] <= 0
 mccormick1[52]: - u[52] + r[52] <= 0
 mccormick1[53]: - u[53] + r[53] <= 0
 mccormick1[54]: - u[54] + r[54] <= 0
 mccormick1[55]: - u[55] + r[55] <= 0
 mccormick1[56]: - u[56] + r[56] <= 0
 mccormick1[57]: - u[57] + r[57] <= 0
 mccormick1[58]: - u[58] + r[58] <= 0
 mccormick1[59]: - u[59] + r[59] <= 0
 mccormick2[0]: - x[0] + r[0] <= 0
 mccormick2[1]: - x[1] + r[1] <= 0
 mccormick2[2]: - x[2] + r[2] <= 0
 mccormick2[3]: - x[3] + r[3] <= 0
 mccormick2[4]: - x[4] + r[4] <= 0
 mccormick2[5]: - x[5] + r[5] <= 0
 mccormick2[6]: - x[6] + r[6] <= 0
 mccormick2[7]: - x[7] + r[7] <= 0
 mccormick2[8]: - x[8] + r[8] <= 0
 mccormick2[9]: - x[9] + r[9] <= 0
 mccormick2[10]: - x[10] + r[10] <= 0
 mccormick2[11]: - x[11] + r[11] <= 0
 mccormick2[12]: - x[12] + r[12] <= 0
 mccormick2[13]: - x[13] + r[13] <= 0
 mccormick2[14]: - x[14] + r[14] <= 0
 mccormick2[15]: - x[15] + r[15] <= 0
 mccormick2[16]: - x[16] + r[16] <= 0
 mccormick2[17]: - x[17] + r[17] <= 0
 mccormick2[18]: - x[18] + r[18] <= 0
 mccormick2[19]: - x[19] + r[19] <= 0
 mccormick2[20]: - x[20] + r[20] <= 0
 mccormick2[21]: - x[21] + r[21] <= 0
 mccormick2[22]: - x[22] + r[22] <= 0
 mccormick2[23]: - x[23] + r[23] <= 0
 mccormick2[24]: - x[24] + r[24] <= 0
 mccormick2[25]: - x[25] + r[25] <= 0
 mccormick2[26]: - x[26] + r[26] <= 0
 mccormick2[27]: - x[27] + r[27] <= 0
 mccormick2[28]: - x[28] + r[28] <= 0
 mccormick2[29]: - x[29] + r[29] <= 0
 mccormick2[30]: - x[30] + r[30] <= 0
 mccormick2[31]: - x[31] + r[31] <= 0
 mccormick2[32]: - x[32] + r[32] <= 0
 mccormick2[33]: - x[33] + r[33] <= 0
 mccormick2[34]: - x[34] + r[34] <= 0
 mccormick2[35]: - x[35] + r[35] <= 0
 mccormick2[36]: - x[36] + r[36] <= 0
 mccormick2[37]: - x[37] + r[37] <= 0
 mccormick2[38]: - x[38] + r[38] <= 0
 mccormick2[39]: - x[39] + r[39] <= 0
 mccormick2[40]: - x[40] + r[40] <= 0
 mccormick2[41]: - x[41] + r[41] <= 0
 mccormick2[42]: - x[42] + r[42] <= 0
 mccormick2[43]: - x[43] + r[43] <= 0
 mccormick2[44]: - x[44] + r[44] <= 0
 mccormick2[45]: - x[45] + r[45] <= 0
 mccormick2[46]: - x[46] + r[46] <= 0
 mccormick2[47]: - x[47] + r[47] <= 0
 mccormick2[48]: - x[48] + r[48] <= 0
 mccormick2[49]: - x[49] + r[49] <= 0
 mccormick2[50]: - x[50] + r[50] <= 0
 mccormick2[51]: - x[51] + r[51] <= 0
 mccormick2[52]: - x[52] + r[52] <= 0
 mccormick2[53]: - x[53] + r[53] <= 0
 mccormick2[54]: - x[54] + r[54] <= 0
 mccormick2[55]: - x[55] + r[55] <= 0
 mccormick2[56]: - x[56] + r[56] <= 0
 mccormick2[57]: - x[57] + r[57] <= 0
 mccormick2[58]: - x[58] + r[58] <= 0
 mccormick2[59]: - x[59] + r[59] <= 0
 mccormick3[0]: x[0] + u[0] - r[0] <= 1
 mccormick3[1]: x[1] + u[1] - r[1] <= 1
 mccormick3[2]: x[2] + u[2] - r[2] <= 1
 mccormick3[3]: x[3] + u[3] - r[3] <= 1
 mccormick3[4]: x[4] + u[4] - r[4] <= 1
 mccormick3[5]: x[5] + u[5] - r[5] <= 1
 mccormick3[6]: x[6] + u[6] - r[6] <= 1
 mccormick3[7]: x[7] + u[7] - r[7] <= 1
 mccormick3[8]: x[8] + u[8] - r[8] <= 1
 mccormick3[9]: x[9] + u[9] - r[9] <= 1
 mccormick3[10]: x[10] + u[10] - r[10] <= 1
 mccormick3[11]: x[11] + u[11] - r[11] <= 1
 mccormick3[12]: x[12] + u[12] - r[12] <= 1
 mccormick3[13]: x[13] + u[13] - r[13] <= 1
 mccormick3[14]: x[14] + u[14] - r[14] <= 1
 mccormick3[15]: x[15] + u[15] - r[15] <= 1
 mccormick3[16]: x[16] + u[16] - r[16] <= 1
 mccormick3[17]: x[17] + u[17] - r[17] <= 1
 mccormick3[18]: x[18] + u[18] - r[18] <= 1
 mccormick3[19]: x[19] + u[19] - r[19] <= 1
 mccormick3[20]: x[20] + u[20] - r[20] <= 1
 mccormick3[21]: x[21] + u[21] - r[21] <= 1
 mccormick3[22]: x[22] + u[22] - r[22] <= 1
 mccormick3[23]: x[23] + u[23] - r[23] <= 1
 mccormick3[24]: x[24] + u[24] - r[24] <= 1
 mccormick3[25]: x[25] + u[25] - r[25] <= 1
 mccormick3[26]: x[26] + u[26] - r[26] <= 1
 mccormick3[27]: x[27] + u[27] - r[27] <= 1
 mccormick3[28]: x[28] + u[28] - r[28] <= 1
 mccormick3[29]: x[29] + u[29] - r[29] <= 1
 mccormick3[30]: x[30] + u[30] - r[30] <= 1
 mccormick3[31]: x[31] + u[31] - r[31] <= 1
 mccormick3[32]: x[32] + u[32] - r[32] <= 1
 mccormick3[33]: x[33] + u[33] - r[33] <= 1
 mccormick3[34]: x[34] + u[34] - r[34] <= 1
 mccormick3[35]: x[35] + u[35] - r[35] <= 1
 mccormick3[36]: x[36] + u[36] - r[36] <= 1
 mccormick3[37]: x[37] + u[37] - r[37] <= 1
 mccormick3[38]: x[38] + u[38] - r[38] <= 1
 mccormick3[39]: x[39] + u[39] - r[39] <= 1
 mccormick3[40]: x[40] + u[40] - r[40] <= 1
 mccormick3[41]: x[41] + u[41] - r[41] <= 1
 mccormick3[42]: x[42] + u[42] - r[42] <= 1
 mccormick3[43]: x[43] + u[43] - r[43] <= 1
 mccormick3[44]: x[44] + u[44] - r[44] <= 1
 mccormick3[45]: x[45] + u[45] - r[45] <= 1
 mccormick3[46]: x[46] + u[46] - r[46] <= 1
 mccormick3[47]: x[47] + u[47] - r[47] <= 1
 mccormick3[48]: x[48] + u[48] - r[48] <= 1
 mccormick3[49]: x[49] + u[49] - r[49] <= 1
 mccormick3[50]: x[50] + u[50] - r[50] <= 1
 mccormick3[51]: x[51] + u[51] - r[51] <= 1
 mccormick3[52]: x[52] + u[52] - r[52] <= 1
 mccormick3[53]: x[53] + u[53] - r[53] <= 1
 mccormick3[54]: x[54] + u[54] - r[54] <= 1
 mccormick3[55]: x[55] + u[55] - r[55] <= 1
 mccormick3[56]: x[56] + u[56] - r[56] <= 1
 mccormick3[57]: x[57] + u[57] - r[57] <= 1
 mccormick3[58]: x[58] + u[58] - r[58] <= 1
 mccormick3[59]: x[59] + u[59] - r[59] <= 1
Bounds
Binaries
 x[0] x[1] x[2] x[3] x[4] x[5] x[6] x[7] x[8] x[9] x[10] x[11] x[12] x[13]
 x[14] x[15] x[16] x[17] x[18] x[19] x[20] x[21] x[22] x[23] x[24] x[25]
 x[26] x[27] x[28] x[29] x[30] x[31] x[32] x[33] x[34] x[35] x[36] x[37]
 x[38] x[39] x[40] x[41] x[42] x[43] x[44] x[45] x[46] x[47] x[48] x[49]
 x[50] x[51] x[52] x[53] x[54] x[55] x[56] x[57] x[58] x[59] u[0] u[1] u[2]
 u[3] u[4] u[5] u[6] u[7] u[8] u[9] u[10] u[11] u[12] u[13] u[14] u[15]
 u[16] u[17] u[18] u[19] u[20] u[21] u[22] u[23] u[24] u[25] u[26] u[27]
 u[28] u[29] u[30] u[31] u[32] u[33] u[34] u[35] u[36] u[37] u[38] u[39]
 u[40] u[41] u[42] u[43] u[44] u[45] u[46] u[47] u[48] u[49] u[50] u[51]
 u[52] u[53] u[54] u[55] u[56] u[57] u[58] u[59] r[0] r[1] r[2] r[3] r[4]
 r[5] r[6] r[7] r[8] r[9] r[10] r[11] r[12] r[13] r[14] r[15] r[16] r[17]
 r[18] r[19] r[20] r[21] r[22] r[23] r[24] r[25] r[26] r[27] r[28] r[29]
 r[30] r[31] r[32] r[33] r[34] r[35] r[36] r[37] r[38] r[39] r[40] r[41]
 r[42] r[43] r[44] r[45] r[46] r[47] r[48] r[49] r[50] r[51] r[52] r[53]
 r[54] r[55] r[56] r[57] r[58] r[59]
End
