instances/knapsack/discrete/knapsack_60_15.kp
72238
60
313

66 6.6 52
18 1.8 13
84 8.4 46
29 2.9 38
78 7.8 60
96 9.6 3
27 2.7 84
62 6.2 46
91 9.1 17
80 8.0 21
78 7.8 81
29 2.9 85
42 4.2 93
82 8.2 24
91 9.1 21
31 3.1 70
27 2.7 12
38 3.8 12
63 6.3 57
40 4.0 4
27 2.7 44
38 3.8 73
86 8.6 66
45 4.5 14
91 9.1 47
18 1.8 13
44 4.4 46
50 5.0 6
88 8.8 36
81 8.1 55
32 3.2 35
14 1.4 42
66 6.6 94
31 3.1 53
46 4.6 58
31 3.1 91
46 4.6 75
51 5.1 57
70 7.0 81
13 1.3 62
89 8.9 78
76 7.6 84
28 2.8 92
4 0.4 41
97 9.7 49
65 6.5 57
80 8.0 11
32 3.2 79
97 9.7 67
62 6.2 80
57 5.7 1
58 5.8 9
3 0.3 1
82 8.2 59
83 8.3 14
22 2.2 64
47 4.7 37
61 6.1 98
98 9.8 66
28 2.8 29

65487
283

[3.6099276129015294 3.3190234412875474 0.9939265996366308 0.11436023982891087 0.9869352113625001 2.1900978375142475 4.24975374499616 2.44643906381313 2.0409676505132266 2.6841853610956754 1.8399182291087353 2.16127790384632 3.35139096042986 2.5228000154138477 1.4486085438305039 2.5637921409607056 1.3162420455899824 4.131012300455198 2.887023286486453 2.01922099634313 4.1880800247313825 4.300787519739308 1.6014878682516738 1.6320110140115744 0.6084763498663849 2.4180467879475014 2.1668247936481273 4.201376682918995 0.07538948272531049 3.376534171748225 3.9723851133942785 2.093199017767469 4.199092710492505 1.85928512527575 0.6482223033794362 4.170555177132067 1.9704604701580002 4.610058093026709 4.103943106619021 0.29508824747647694 4.206266765835992 1.8379195497632774 3.348511098480784 3.223622756878311 4.137344980199806 3.268632748469691 2.628214478638406 0.15271384005490046 1.6990970952921824 4.06115740101027 4.566114680495628 3.2365157816172014 0.6510240476125326 2.6684267760334675 4.5479900918563825 0.09100555110438177 0.08071730355540582 1.4111777267200591 2.8775583393504385 3.1881310719256764]

[72 93 31 12 69 42 90 4 6 55 40 28 33 57 81 69 94 85 94 75 54 96 21 87 49 1 87 24 18 84 62 16 68 98 65 82 53 33 81 71 12 58 39 82 8 11 42 2 80 45 23 9 6 57 13 52 42 39 9 71]
